SumColouring/JavaBacktracker/RandomInstances/18_0.25_2.col
c File: instances/18_0.25_2.col
c
c Description: Random graph of size 18 vertices and P(0.25) of edges between any two vertices.
p col 18 153
e 1 13
e 1 15
e 2 4
e 2 5
e 2 6
e 2 11
e 3 4
e 3 12
e 3 14
e 3 16
e 4 14
e 4 15
e 5 7
e 5 14
e 6 9
e 6 16
e 7 11
e 7 12
e 7 13
e 7 14
e 7 15
e 7 16
e 8 10
e 8 14
e 9 11
e 9 18
e 10 15
e 10 17
e 10 18
e 11 14
e 11 18
e 13 14
e 14 16
e 14 18
e 15 16
e 15 18
e 16 18
e 17 18